param set_len = 26;
param target_sum = 861997042;
param values := [1] 107687388 [2] 7562669 [3] 20164384 [4] 21948413 [5] 129776032 [6] 68495876 [7] 42914672 [8] 134079003 [9] 79927738 [10] 50272053 [11] 23908120 [12] 11792017 [13] 124442852 [14] 24678222 [15] 114869081 [16] 53744544 [17] 3731638 [18] 117793603 [19] 110020760 [20] 27873650 [21] 22928910 [22] 62768439 [23] 106849882 [24] 34751375 [25] 56214128 [26] 84574407 ;
